proyfinal/src/viki/013/experimentInOfficeAgust.take6.output/bcd9d1b5-a6a4-4d4b-8af7-bdae122dc800.als.dat
{'cnf.clauses': '118081',
 'cnf.totvars': '69608',
 'conflict literals': '49',
 'conflicts': '19',
 'decisions': '9160',
 'memused.mb': '17.65',
 'outcome': 'UNSAT',
 'propagations': '34332',
 'restarts': '1',
 'solver.msecs': 31,
 'task.msecs': 80}
