proyfinal/src/viki/013/experimentInOfficeAgust.take6.output/bcd9d1b5-a6a4-4d4b-8af7-bdae122dc800.als.out
Reading from standard input... Use '--help' for help.
============================[ Problem Statistics ]=============================
|                                                                             |
|  Number of variables:         69608                                         |
|  Number of clauses:          118081                                         |
|  Parse time:                   0.02 s                                       |
|                                                                             |
============================[ Search Statistics ]==============================
| Conflicts |          ORIGINAL         |          LEARNT          | Progress |
|           |    Vars  Clauses Literals |    Limit  Clauses Lit/Cl |          |
===============================================================================
===============================================================================
restarts              : 1
conflicts             : 19             (600 /sec)
decisions             : 9160           (0.00 % random) (289196 /sec)
propagations          : 34332          (1083917 /sec)
conflict literals     : 49             (0.00 % deleted)
Memory used           : 17.65 MB
CPU time              : 0.031674 s

UNSATISFIABLE
